28 33 19 64 88 12 40 36 81 90 56 10 17 
29 97 93 
2 55 87 37 41 
79 
11 63 5 80 100 8 60 
75 69 31 99 49 85 38 73 3 48 20 66 1 89 
52 95 34 67 77 
32 
30 72 71 35 47 
76 70 21 51 82 25 
65 15 
53 91 61 13 43 
44 98 18 42 46 96 6 50 
94 84 24 58 
83 59 92 62 27 39 78 45 7 14 16 86 57 23 9 22 68 54 26 74 4 

